(declare-fun temp1470_2 () (_ BitVec 64))
(declare-fun temp1470_1 () (_ BitVec 64))
(declare-fun temp1470_4 () (_ BitVec 64))
(declare-fun temp1470_3 () (_ BitVec 64))
(declare-fun temp1470_6 () (_ BitVec 64))
(declare-fun temp1470_5 () (_ BitVec 64))
(declare-fun temp1470_8 () (_ BitVec 64))
(declare-fun temp1470_7 () (_ BitVec 64))
(declare-fun temp1470_10 () (_ BitVec 64))
(declare-fun temp1470_9 () (_ BitVec 64))
(declare-fun temp1470_11 () (_ BitVec 64))
(declare-fun var2298106 () (_ BitVec 64))
(declare-fun var2298114 () (_ BitVec 64))
(declare-fun temp1470_12 () (_ BitVec 64))
(declare-fun var3679322 () (_ BitVec 64))
(declare-fun temp1470_13 () (_ BitVec 64))
(declare-fun temp1470_15 () (_ BitVec 64))
(declare-fun temp1470_14 () (_ BitVec 64))
(assert (= temp1470_2 #x0000000000000000))
(assert (= temp1470_1 temp1470_2))
(assert (= temp1470_4 #x0000000000000000))
(assert (= temp1470_3 temp1470_4))
(assert (= temp1470_6 #x0000000000000000))
(assert (= temp1470_5 temp1470_6))
(assert (= temp1470_8 #x000000000000002b))
(assert (= temp1470_7 temp1470_8))
(assert (= temp1470_10 #x0000000000000001))
(assert (= temp1470_9 temp1470_10))
(assert (= temp1470_11 #x0000000000000001))
(assert (= var2298106 temp1470_11))
(assert (= var2298114 var2298106))
(assert (= temp1470_12 #x0000000000000000))
(assert (= var3679322 temp1470_12))
(assert (= temp1470_13 #x0000000000000000))
(assert (or false (= var3679322 temp1470_13)))
(assert (= temp1470_15 #x0000000000000001))
(assert (= temp1470_14 temp1470_15))
(model-add temp1470_2 () (_ BitVec 64) #x0000000000000000)
(model-add temp1470_1 () (_ BitVec 64) #x0000000000000000)
(model-add temp1470_4 () (_ BitVec 64) #x0000000000000000)
(model-add temp1470_3 () (_ BitVec 64) #x0000000000000000)
(model-add temp1470_6 () (_ BitVec 64) #x0000000000000000)
(model-add temp1470_5 () (_ BitVec 64) #x0000000000000000)
(model-add temp1470_8 () (_ BitVec 64) #x000000000000002b)
(model-add temp1470_7 () (_ BitVec 64) #x000000000000002b)
(model-add temp1470_10 () (_ BitVec 64) #x0000000000000001)
(model-add temp1470_9 () (_ BitVec 64) #x0000000000000001)
(model-add temp1470_11 () (_ BitVec 64) #x0000000000000001)
(model-add var2298106 () (_ BitVec 64) #x0000000000000001)
(model-add var2298114 () (_ BitVec 64) #x0000000000000001)
(model-add temp1470_12 () (_ BitVec 64) #x0000000000000000)
(model-add var3679322 () (_ BitVec 64) #x0000000000000000)
(model-add temp1470_13 () (_ BitVec 64) #x0000000000000000)






